data/processed_heuristic-threshold/instances/1/7/ds_516_courier_318/pairwise.tsp
NAME: ds_516_courier_318
TYPE: TSP
COMMENT: nil
DIMENSION: 8
EDGE_WEIGHT_TYPE: EXPLICIT
EDGE_WEIGHT_FORMAT: FULL_MATRIX
EDGE_WEIGHT_SECTION
9999 2981 3007 2698 2872 3458 4266 8611 
2981 9999 195 559 974 3108 3672 5632 
3007 195 9999 736 1167 3297 3485 5606 
2698 559 736 9999 482 2570 4079 5994 
2872 974 1167 482 9999 2140 4561 6018 
3458 3108 3297 2570 2140 9999 6522 7452 
4266 3672 3485 4079 4561 6522 9999 7138 
8611 5632 5606 5994 6018 7452 7138 9999 
