data/processed_heuristic-threshold/instances/1/7/ds_516_courier_318/pairwise.sol
8
0 5 4 3 1 2 7 6 
